proyfinal/src/viki/013/experimentInOfficeAgust.take6.output/e3d769ed-744c-4d09-80e7-f38dd8c6467c.als.dat
{'cnf.clauses': '118081',
 'cnf.totvars': '69608',
 'conflict literals': '10764',
 'conflicts': '587',
 'decisions': '8921',
 'memused.mb': '16.70',
 'outcome': 'UNSAT',
 'propagations': '781000',
 'restarts': '5',
 'solver.msecs': 63,
 'task.msecs': 117}
